8188
49, 32, 45, 19, 10, 9, 8, 41, 3, 17, 21, 42, 7, 2, 47, 11, 12, 43, 33, 22, 1, 39, 36, 37, 24, 34, 40, 15, 23, 18, 35, 48, 5, 6, 4, 25, 46, 44, 16, 26, 50, 20, 38, 30, 29, 28, 27, 13, 14, 52, 31, 51
